NAME : portcgen-24-8
COMMENT : portcgen N=24, seed=8
TYPE : TSP
DIMENSION : 24
EDGE_WEIGHT_TYPE : EUC_2D
NODE_COORD_SECTION
1 -193616 11764
2 132442 131738
3 7823 -322177
4 -46346 -65695
5 -358569 120461
6 -15232 30906
7 -43411 -34031
8 154159 -177568
9 135569 -238665
10 108156 78874
11 51646 27076
12 97351 -143643
13 -84099 1430
14 -71597 148876
15 -107389 401640
16 -178251 303427
17 -250102 209992
18 -49003 145668
19 51613 -306102
20 -82827 232850
21 65954 268366
22 -153371 -67379
23 104156 -48237
24 44114 -141526
